NAME : A048-16f.4955.tour
COMMENT : Cost = 0_4955
COMMENT : Found by LKH [Keld Helsgaun] Mon Jul  4 21:56:08 2016
TYPE : TOUR
DIMENSION : 63
TOUR_SECTION
1
2
52
36
24
8
33
53
46
18
54
37
47
14
60
13
35
19
55
6
32
63
41
44
42
48
31
30
25
56
39
38
11
59
26
12
9
51
21
23
27
57
3
10
61
5
28
34
49
22
45
20
43
62
7
4
29
50
40
17
16
15
58
-1
EOF
